p cnf 26 67
a 24 13 0
e 1 2 3 4 5 6 7 8 9 10 11 12 14 15 16 17 18 19 20 21 22 23 25 26 0
5 3 0
5 -4 0
-3 4 -5 0
6 -2 0
6 -5 0
2 5 -6 0
7 -1 0
7 6 0
1 -6 -7 0
5 8 -9 0
-5 -8 -9 0
5 -8 9 0
-5 8 9 0
10 -7 0
10 -9 0
7 9 -10 0
12 5 0
12 -11 0
-5 11 -12 0
12 13 -14 0
-12 -13 -14 0
12 -13 14 0
-12 13 14 0
-14 -2 -15 0
14 2 -15 0
-14 2 15 0
14 -2 15 0
16 5 0
16 -8 0
-5 8 -16 0
17 -8 0
17 -16 0
8 16 -17 0
18 2 0
18 -3 0
-2 3 -18 0
-17 18 -19 0
17 -18 -19 0
-17 -18 19 0
17 18 19 0
-21 20 0
-21 3 0
-20 -3 21 0
-19 21 -22 0
19 -21 -22 0
-19 -21 22 0
19 21 22 0
-23 -6 0
-23 16 0
6 -16 23 0
24 22 0
24 -23 0
-22 23 -24 0
25 -15 0
25 24 0
15 -24 -25 0
10 -25 -26 0
-10 25 -26 0
10 25 26 0
-10 -25 26 0
24 23 -22 0
14 19 -1 24 3 12 23 0
-23 18 -12 0
10 24 12 -5 -19 9 0
12 -8 -18 24 -13 0
-13 11 -2 10 -4 20 7 0
26 0
